(set-logic HORN)
(set-info :source |
    Benchmark: C_VC
    Output by Princess (http://www.philipp.ruemmer.org/princess.shtml)
|)
(set-info :status sat)
(declare-fun inv_main15 (Int Int Int Int) Bool)
(declare-fun inv_main27 (Int Int Int Int) Bool)
(declare-fun inv_main39 (Int Int Int Int) Bool)
(declare-fun inv_main4 (Int Int Int Int) Bool)
(declare-fun inv_main51 (Int Int Int Int) Bool)
(declare-fun inv_main58 (Int Int Int Int) Bool)
(declare-fun inv_main72 (Int Int Int Int Int Int) Bool)
(assert (inv_main4 0 0 0 50))
(assert (forall ((var0 Int) (var1 Int) (var2 Int) (var3 Int)) (or (not (and (inv_main15 var3 var2 var1 var0) (and (and (<= 0 (+ (+ 50 (* (- 1) (+ var1 1))) (- 1))) (<= 0 (+ (+ 100 (* (- 1) (+ var1 1))) (- 1)))) (and (<= 0 (+ (+ 50 (* (- 1) var1)) (- 1))) (<= 0 (+ (+ 100 (* (- 1) var1)) (- 1))))))) (inv_main27 var3 var2 (+ (+ var1 1) 1) var0))))
(assert (forall ((var0 Int) (var1 Int) (var2 Int) (var3 Int)) (or (not (and (inv_main15 var3 var2 var1 var0) (and (and (not (<= 0 (+ (+ 50 (* (- 1) (+ var1 1))) (- 1)))) (<= 0 (+ (+ 100 (* (- 1) (+ var1 1))) (- 1)))) (and (<= 0 (+ (+ 50 (* (- 1) var1)) (- 1))) (<= 0 (+ (+ 100 (* (- 1) var1)) (- 1))))))) (inv_main27 var3 var2 (+ (+ var1 1) 1) (+ var0 1)))))
(assert (forall ((var0 Int) (var1 Int) (var2 Int) (var3 Int)) (or (not (and (inv_main15 var3 var2 var1 var0) (and (and (<= 0 (+ (+ 50 (* (- 1) (+ var1 1))) (- 1))) (<= 0 (+ (+ 100 (* (- 1) (+ var1 1))) (- 1)))) (and (not (<= 0 (+ (+ 50 (* (- 1) var1)) (- 1)))) (<= 0 (+ (+ 100 (* (- 1) var1)) (- 1))))))) (inv_main27 var3 var2 (+ (+ var1 1) 1) (+ var0 1)))))
(assert (forall ((var0 Int) (var1 Int) (var2 Int) (var3 Int)) (or (not (and (inv_main15 var3 var2 var1 var0) (and (and (not (<= 0 (+ (+ 50 (* (- 1) (+ var1 1))) (- 1)))) (<= 0 (+ (+ 100 (* (- 1) (+ var1 1))) (- 1)))) (and (not (<= 0 (+ (+ 50 (* (- 1) var1)) (- 1)))) (<= 0 (+ (+ 100 (* (- 1) var1)) (- 1))))))) (inv_main27 var3 var2 (+ (+ var1 1) 1) (+ (+ var0 1) 1)))))
(assert (forall ((var0 Int) (var1 Int) (var2 Int) (var3 Int)) (or (not (and (inv_main39 var3 var2 var1 var0) (and (and (<= 0 (+ (+ 50 (* (- 1) (+ var1 1))) (- 1))) (<= 0 (+ (+ 100 (* (- 1) (+ var1 1))) (- 1)))) (and (<= 0 (+ (+ 50 (* (- 1) var1)) (- 1))) (<= 0 (+ (+ 100 (* (- 1) var1)) (- 1))))))) (inv_main51 var3 var2 (+ (+ var1 1) 1) var0))))
(assert (forall ((var0 Int) (var1 Int) (var2 Int) (var3 Int)) (or (not (and (inv_main39 var3 var2 var1 var0) (and (and (not (<= 0 (+ (+ 50 (* (- 1) (+ var1 1))) (- 1)))) (<= 0 (+ (+ 100 (* (- 1) (+ var1 1))) (- 1)))) (and (<= 0 (+ (+ 50 (* (- 1) var1)) (- 1))) (<= 0 (+ (+ 100 (* (- 1) var1)) (- 1))))))) (inv_main51 var3 var2 (+ (+ var1 1) 1) (+ var0 1)))))
(assert (forall ((var0 Int) (var1 Int) (var2 Int) (var3 Int)) (or (not (and (inv_main39 var3 var2 var1 var0) (and (and (<= 0 (+ (+ 50 (* (- 1) (+ var1 1))) (- 1))) (<= 0 (+ (+ 100 (* (- 1) (+ var1 1))) (- 1)))) (and (not (<= 0 (+ (+ 50 (* (- 1) var1)) (- 1)))) (<= 0 (+ (+ 100 (* (- 1) var1)) (- 1))))))) (inv_main51 var3 var2 (+ (+ var1 1) 1) (+ var0 1)))))
(assert (forall ((var0 Int) (var1 Int) (var2 Int) (var3 Int)) (or (not (and (inv_main39 var3 var2 var1 var0) (and (and (not (<= 0 (+ (+ 50 (* (- 1) (+ var1 1))) (- 1)))) (<= 0 (+ (+ 100 (* (- 1) (+ var1 1))) (- 1)))) (and (not (<= 0 (+ (+ 50 (* (- 1) var1)) (- 1)))) (<= 0 (+ (+ 100 (* (- 1) var1)) (- 1))))))) (inv_main51 var3 var2 (+ (+ var1 1) 1) (+ (+ var0 1) 1)))))
(assert (forall ((var0 Int) (var1 Int) (var2 Int) (var3 Int)) (or (not (and (inv_main51 var3 var2 var1 var0) (and (<= 0 (+ (+ 50 (* (- 1) var1)) (- 1))) (<= 0 (+ (+ 100 (* (- 1) var1)) (- 1)))))) (inv_main58 var3 var2 (+ var1 1) var0))))
(assert (forall ((var0 Int) (var1 Int) (var2 Int) (var3 Int)) (or (not (and (inv_main51 var3 var2 var1 var0) (and (not (<= 0 (+ (+ 50 (* (- 1) var1)) (- 1)))) (<= 0 (+ (+ 100 (* (- 1) var1)) (- 1)))))) (inv_main58 var3 var2 (+ var1 1) (+ var0 1)))))
(assert (forall ((var0 Int) (var1 Int) (var2 Int) (var3 Int)) (or (not (and (inv_main58 var3 var2 var1 var0) (and (<= 0 (+ (+ 50 (* (- 1) var1)) (- 1))) (<= 0 (+ (+ 100 (* (- 1) var1)) (- 1)))))) (inv_main58 var3 var2 (+ var1 1) var0))))
(assert (forall ((var0 Int) (var1 Int) (var2 Int) (var3 Int)) (or (not (and (inv_main58 var3 var2 var1 var0) (and (not (<= 0 (+ (+ 50 (* (- 1) var1)) (- 1)))) (<= 0 (+ (+ 100 (* (- 1) var1)) (- 1)))))) (inv_main58 var3 var2 (+ var1 1) (+ var0 1)))))
(assert (forall ((var0 Int) (var1 Int) (var2 Int) (var3 Int) (var4 Int) (var5 Int) (var6 Int) (var7 Int) (var8 Int)) (or (not (and (inv_main58 var8 var7 var6 var5) (and (and (= var4 0) (and (and (and (and (= var3 var8) (= var2 var7)) (= var1 var6)) (= var0 var5)) (or (and (= var5 100) (= var4 1)) (and (not (= var5 100)) (= var4 0))))) (not (<= 0 (+ (+ 100 (* (- 1) var6)) (- 1))))))) (inv_main72 var3 var2 var1 var0 var4 var4))))
(assert (forall ((var0 Int) (var1 Int) (var2 Int) (var3 Int)) (or (not (and (inv_main27 var3 var2 var1 var0) (and (and (<= 0 (+ (+ 50 (* (- 1) (+ var1 1))) (- 1))) (<= 0 (+ (+ 100 (* (- 1) (+ var1 1))) (- 1)))) (and (<= 0 (+ (+ 50 (* (- 1) var1)) (- 1))) (<= 0 (+ (+ 100 (* (- 1) var1)) (- 1))))))) (inv_main39 var3 var2 (+ (+ var1 1) 1) var0))))
(assert (forall ((var0 Int) (var1 Int) (var2 Int) (var3 Int)) (or (not (and (inv_main27 var3 var2 var1 var0) (and (and (not (<= 0 (+ (+ 50 (* (- 1) (+ var1 1))) (- 1)))) (<= 0 (+ (+ 100 (* (- 1) (+ var1 1))) (- 1)))) (and (<= 0 (+ (+ 50 (* (- 1) var1)) (- 1))) (<= 0 (+ (+ 100 (* (- 1) var1)) (- 1))))))) (inv_main39 var3 var2 (+ (+ var1 1) 1) (+ var0 1)))))
(assert (forall ((var0 Int) (var1 Int) (var2 Int) (var3 Int)) (or (not (and (inv_main27 var3 var2 var1 var0) (and (and (<= 0 (+ (+ 50 (* (- 1) (+ var1 1))) (- 1))) (<= 0 (+ (+ 100 (* (- 1) (+ var1 1))) (- 1)))) (and (not (<= 0 (+ (+ 50 (* (- 1) var1)) (- 1)))) (<= 0 (+ (+ 100 (* (- 1) var1)) (- 1))))))) (inv_main39 var3 var2 (+ (+ var1 1) 1) (+ var0 1)))))
(assert (forall ((var0 Int) (var1 Int) (var2 Int) (var3 Int)) (or (not (and (inv_main27 var3 var2 var1 var0) (and (and (not (<= 0 (+ (+ 50 (* (- 1) (+ var1 1))) (- 1)))) (<= 0 (+ (+ 100 (* (- 1) (+ var1 1))) (- 1)))) (and (not (<= 0 (+ (+ 50 (* (- 1) var1)) (- 1)))) (<= 0 (+ (+ 100 (* (- 1) var1)) (- 1))))))) (inv_main39 var3 var2 (+ (+ var1 1) 1) (+ (+ var0 1) 1)))))
(assert (forall ((var0 Int) (var1 Int) (var2 Int) (var3 Int)) (or (not (and (inv_main4 var3 var2 var1 var0) (and (and (<= 0 (+ (+ 50 (* (- 1) (+ var1 1))) (- 1))) (<= 0 (+ (+ 100 (* (- 1) (+ var1 1))) (- 1)))) (and (<= 0 (+ (+ 50 (* (- 1) var1)) (- 1))) (<= 0 (+ (+ 100 (* (- 1) var1)) (- 1))))))) (inv_main15 var3 var2 (+ (+ var1 1) 1) var0))))
(assert (forall ((var0 Int) (var1 Int) (var2 Int) (var3 Int)) (or (not (and (inv_main4 var3 var2 var1 var0) (and (and (not (<= 0 (+ (+ 50 (* (- 1) (+ var1 1))) (- 1)))) (<= 0 (+ (+ 100 (* (- 1) (+ var1 1))) (- 1)))) (and (<= 0 (+ (+ 50 (* (- 1) var1)) (- 1))) (<= 0 (+ (+ 100 (* (- 1) var1)) (- 1))))))) (inv_main15 var3 var2 (+ (+ var1 1) 1) (+ var0 1)))))
(assert (forall ((var0 Int) (var1 Int) (var2 Int) (var3 Int)) (or (not (and (inv_main4 var3 var2 var1 var0) (and (and (<= 0 (+ (+ 50 (* (- 1) (+ var1 1))) (- 1))) (<= 0 (+ (+ 100 (* (- 1) (+ var1 1))) (- 1)))) (and (not (<= 0 (+ (+ 50 (* (- 1) var1)) (- 1)))) (<= 0 (+ (+ 100 (* (- 1) var1)) (- 1))))))) (inv_main15 var3 var2 (+ (+ var1 1) 1) (+ var0 1)))))
(assert (forall ((var0 Int) (var1 Int) (var2 Int) (var3 Int)) (or (not (and (inv_main4 var3 var2 var1 var0) (and (and (not (<= 0 (+ (+ 50 (* (- 1) (+ var1 1))) (- 1)))) (<= 0 (+ (+ 100 (* (- 1) (+ var1 1))) (- 1)))) (and (not (<= 0 (+ (+ 50 (* (- 1) var1)) (- 1)))) (<= 0 (+ (+ 100 (* (- 1) var1)) (- 1))))))) (inv_main15 var3 var2 (+ (+ var1 1) 1) (+ (+ var0 1) 1)))))
(assert (forall ((var0 Int) (var1 Int) (var2 Int) (var3 Int) (var4 Int) (var5 Int)) (not (inv_main72 var5 var4 var3 var2 var1 var0))))
(check-sat)
